70 5528419
44 16 48 57 36 58 24 46 25 1 33 3 13 38 65 8 69 10 6 35 45 50 52 34 2 23 20 60 62 11 28 39 66 70 68 53 49 9 14 26 12 64 22 31 59 15 21 17 32 7 54 42 40 43 61 56 47 63 18 30 19 4 5 55 67 51 37 27 41 29 
